
******************************************************************************
This program contains Ipopt, a library for large-scale nonlinear optimization.
 Ipopt is released as open source code under the Eclipse Public License (EPL).
         For more information visit http://projects.coin-or.org/Ipopt

This version of Ipopt was compiled from source code available at
    https://github.com/IDAES/Ipopt as part of the Institute for the Design of
    Advanced Energy Systems Process Systems Engineering Framework (IDAES PSE
    Framework) Copyright (c) 2018-2019. See https://github.com/IDAES/idaes-pse.

This version of Ipopt was compiled using HSL, a collection of Fortran codes
    for large-scale scientific computation.  All technical papers, sales and
    publicity material resulting from use of the HSL codes within IPOPT must
    contain the following acknowledgement:
        HSL, a collection of Fortran codes for large-scale scientific
        computation. See http://www.hsl.rl.ac.uk.
******************************************************************************

This is Ipopt version 3.13.2, running with linear solver ma27.

Number of nonzeros in equality constraint Jacobian...:     1782
Number of nonzeros in inequality constraint Jacobian.:        0
Number of nonzeros in Lagrangian Hessian.............:     3193

Total number of variables............................:      620
                     variables with only lower bounds:      124
                variables with lower and upper bounds:      434
                     variables with only upper bounds:        0
Total number of equality constraints.................:      612
Total number of inequality constraints...............:        0
        inequality constraints with only lower bounds:        0
   inequality constraints with lower and upper bounds:        0
        inequality constraints with only upper bounds:        0

iter    objective    inf_pr   inf_du lg(mu)  ||d||  lg(rg) alpha_du alpha_pr  ls
   0  0.0000000e+00 1.35e+00 1.53e-14  -1.0 0.00e+00    -  0.00e+00 0.00e+00   0
   1  8.4131505e+00 8.52e-01 8.72e+02  -1.0 3.98e+04    -  5.36e-01 9.90e-01h  1
   2  9.4717235e+00 4.09e-02 1.84e+02  -1.0 4.13e+03    -  8.06e-01 9.90e-01h  1
   3  9.5500454e+00 6.78e-04 5.79e+02  -1.0 5.47e+02    -  9.84e-01 9.90e-01h  1
   4  8.4578068e+00 7.18e-05 1.87e+05  -1.0 7.67e+03    -  9.71e-01 9.90e-01H  1
   5  8.4574963e+00 7.17e-05 9.89e+08  -1.0 2.99e+03    -  9.90e-01 9.67e-04h 11
   6  8.4571829e+00 7.17e-05 1.98e+09  -1.0 3.01e+03    -  9.90e-01 9.67e-04h 11
   7  8.4568702e+00 7.16e-05 2.98e+09  -1.0 3.01e+03    -  1.00e+00 9.67e-04h 11
   8  8.4565580e+00 7.15e-05 3.98e+09  -1.0 3.01e+03    -  1.00e+00 9.67e-04h 11
   9  8.4562464e+00 7.14e-05 4.98e+09  -1.0 3.01e+03    -  1.00e+00 9.67e-04h 11
iter    objective    inf_pr   inf_du lg(mu)  ||d||  lg(rg) alpha_du alpha_pr  ls
  10  8.4559355e+00 7.13e-05 5.97e+09  -1.0 3.00e+03    -  1.00e+00 9.67e-04h 11
  11  8.4556252e+00 7.12e-05 6.97e+09  -1.0 3.00e+03    -  1.00e+00 9.67e-04h 11
  12  8.4553154e+00 7.12e-05 7.97e+09  -1.0 3.00e+03    -  1.00e+00 9.67e-04h 11
  13  8.4550063e+00 7.11e-05 8.97e+09  -1.0 2.99e+03    -  1.00e+00 9.67e-04h 11
  14  8.4546977e+00 7.10e-05 9.97e+09  -1.0 2.99e+03    -  1.00e+00 9.67e-04h 11
  15  8.2938358e+00 1.77e-02 1.10e+08  -1.0 2.99e+03    -  1.00e+00 9.90e-01w  1
  16  8.2965979e+00 1.69e-04 1.01e+09  -1.0 3.85e+01    -  1.00e+00 9.90e-01w  1
  17  8.2966289e+00 1.68e-06 1.01e+11  -1.0 3.89e-01    -  1.00e+00 9.90e-01h  1
In iteration 17, 31 Slacks too small, adjusting variable bounds
  18  8.2966292e+00 1.68e-08 1.01e+13  -1.0 3.89e-03    -  1.00e+00 9.90e-01h  1
  19  8.2966292e+00 7.73e-12 1.00e-06  -1.0 3.88e-05    -  1.00e+00 1.00e+00h  1
iter    objective    inf_pr   inf_du lg(mu)  ||d||  lg(rg) alpha_du alpha_pr  ls
  20  8.2966114e+00 3.22e-08 9.93e+12  -9.0 3.29e+02    -  9.64e-01 4.88e-04f 12
  21  8.2966031e+00 2.92e-08 1.01e+13  -9.0 1.79e+03    -  5.45e-01 2.94e-05f 16
  22  8.2966008e+00 2.81e-08 1.02e+13  -9.0 4.45e+03    -  2.09e-01 3.24e-06f 17
  23  8.2965980e+00 2.71e-08 1.02e+13  -9.0 2.95e+03    -  3.29e-01 5.94e-06f 17
  24  8.2965964e+00 2.68e-08 1.03e+13  -9.0 2.45e+03    -  4.28e-01 4.23e-06f 18
  25  8.1000246e+00 1.52e+02 3.52e+12  -9.0 2.32e+03    -  4.87e-01 6.55e-01f  1
  26  1.0686651e+01 1.53e+02 7.99e+14  -9.0 6.71e+04  -4.0 9.31e-09 3.35e-01h  1
WARNING: Problem in step computation; switching to emergency mode.
  27r 1.0686651e+01 1.53e+02 1.00e+03   2.2 0.00e+00  19.7 0.00e+00 0.00e+00R  1
  28r 1.0686659e+01 1.23e+02 7.51e+09   2.2 3.72e+04    -  6.93e-03 8.11e-04f  3
  29  1.0686649e+01 1.23e+02 1.04e+08  -9.0 2.47e+12    -  2.88e-11 5.84e-12h  1
iter    objective    inf_pr   inf_du lg(mu)  ||d||  lg(rg) alpha_du alpha_pr  ls
  30r 1.0686649e+01 1.23e+02 9.99e+02   2.1 0.00e+00    -  0.00e+00 1.74e-12R  2
  31r 1.0686649e+01 1.23e+02 5.02e+03   2.1 2.81e+10    -  3.42e-10 8.85e-13f 13
  32r 1.0686658e+01 9.99e+01 2.13e+07   1.4 3.50e+04    -  2.51e-02 6.60e-04f  1
  33  9.8013667e+00 9.96e+01 4.60e+12  -9.0 2.55e+06    -  5.20e-06 3.23e-03f  1
  34  9.7998984e+00 9.96e+01 3.08e+18  -9.0 5.86e+05   1.5 4.09e-11 1.91e-04h  1
Scaling factors are invalid - setting them all to 1.
Scaling factors are invalid - setting them all to 1.
Scaling factors are invalid - setting them all to 1.
Scaling factors are invalid - setting them all to 1.
MA27BD returned iflag=-4 and requires more memory.
 Increase liw from 34795 to 69590 and la from 37195 to 76178 and factorize again.
Scaling factors are invalid - setting them all to 1.
Scaling factors are invalid - setting them all to 1.
MA27BD returned iflag=-4 and requires more memory.
 Increase liw from 69590 to 139180 and la from 76178 to 160248 and factorize again.
Scaling factors are invalid - setting them all to 1.
Scaling factors are invalid - setting them all to 1.
Scaling factors are invalid - setting them all to 1.
Scaling factors are invalid - setting them all to 1.
Scaling factors are invalid - setting them all to 1.
Scaling factors are invalid - setting them all to 1.
Scaling factors are invalid - setting them all to 1.
Scaling factors are invalid - setting them all to 1.
Scaling factors are invalid - setting them all to 1.
Scaling factors are invalid - setting them all to 1.
Scaling factors are invalid - setting them all to 1.
Scaling factors are invalid - setting them all to 1.
Scaling factors are invalid - setting them all to 1.
WARNING: Problem in step computation; switching to emergency mode.
  35r 9.7998984e+00 9.96e+01 9.99e+02   2.0 0.00e+00  18.5 0.00e+00 0.00e+00R  1
  36r 9.7999263e+00 1.56e+01 1.06e+03   2.0 4.78e+04    -  1.84e-03 2.06e-03f  1
  37  9.8832715e+00 1.54e+01 9.91e+02  -9.0 9.40e+04    -  1.03e-02 9.38e-03h  1
  38r 9.8832715e+00 1.54e+01 9.99e+02   1.2 0.00e+00    -  0.00e+00 4.13e-12R  2
  39r 9.8832693e+00 1.54e+01 3.90e+08   1.2 3.90e+09    -  8.69e-08 3.74e-08f  1
iter    objective    inf_pr   inf_du lg(mu)  ||d||  lg(rg) alpha_du alpha_pr  ls
  40r 9.8832693e+00 1.54e+01 2.28e+06   1.2 1.06e+00   3.5 1.91e-01 1.91e-01f  1
  41r 9.8832693e+00 1.53e+01 2.11e+13   1.2 1.28e+01   3.0 4.67e-02 1.16e-01f  1
WARNING: Problem in step computation; switching to emergency mode.
  42r 9.8832693e+00 1.53e+01 2.11e+13   1.2 1.28e+01  18.7 0.00e+00 0.00e+00R  1
WARNING: Problem in step computation; switching to emergency mode.
Restoration phase is called at point that is almost feasible,
  with constraint violation 0.000000e+00. Abort.
Restoration phase in the restoration phase failed.

Number of Iterations....: 42

                                   (scaled)                 (unscaled)
Objective...............:   9.8832693311507480e+00    9.8832693311507480e+00
Dual infeasibility......:   2.1107352478851422e+13    2.1107352478851422e+13
Constraint violation....:   1.5321363253966183e+01    1.5321363253966183e+01
Complementarity.........:   1.2831875280027045e+03    1.2831875280027045e+03
Overall NLP error.......:   1.5266783867928950e+12    2.1107352478851422e+13


Number of objective function evaluations             = 293
Number of objective gradient evaluations             = 37
Number of equality constraint evaluations            = 293
Number of inequality constraint evaluations          = 0
Number of equality constraint Jacobian evaluations   = 45
Number of inequality constraint Jacobian evaluations = 0
Number of Lagrangian Hessian evaluations             = 43
Total CPU secs in IPOPT (w/o function evaluations)   =      0.302
Total CPU secs in NLP function evaluations           =      2.172

EXIT: Restoration Failed!
